(set-info :source |printed by MathSAT|)
(declare-fun |.x{155}| () Int)
(declare-fun |.y{13}| () Int)
(declare-fun |.y{10}| () Int)
(declare-fun |.y{14}| () Int)
(declare-fun |.y{11}| () Int)
(declare-fun |.y{15}| () Int)
(declare-fun |.x{156}| () (Array Int Int))
(declare-fun |.y{16}| () (Array Int Int))
(declare-fun |.x{159}| () Int)
(declare-fun |.y{17}| () Int)
(declare-fun |.x{160}| () (Array Int Int))
(declare-fun |.y{18}| () (Array Int Int))
(declare-fun |.x{158}| () Int)
(declare-fun |.y{19}| () Int)
(declare-fun |.x{152}| () Int)
(declare-fun |.y{20}| () Int)
(declare-fun |.y{12}| () Int)
(declare-fun |.y{21}| () Int)
(declare-fun |.loc{4}| () Bool)
(declare-fun |.loc{7}| () Bool)
(declare-fun |.loc{5}| () Bool)
(declare-fun |.loc{8}| () Bool)
(declare-fun |.loc{6}| () Bool)
(declare-fun |.loc{9}| () Bool)
(declare-fun |.x{42}| () Int)
(declare-fun |.x{41}| () Int)
(declare-fun |.x{161}| () Int)
(declare-fun |.x{157}| () Int)
(define-fun .def_26 () Bool (! |.loc{4}| :next |.loc{7}|))
(define-fun .def_98 () Bool (not .def_26))
(define-fun .def_28 () Bool (! |.loc{5}| :next |.loc{8}|))
(define-fun .def_95 () Bool (not .def_28))
(define-fun .def_232 () Bool (and .def_95 .def_98))
(define-fun .def_30 () Bool (! |.loc{6}| :next |.loc{9}|))
(define-fun .def_230 () Bool (not .def_30))
(define-fun .def_233 () Bool (! (and .def_230 .def_232) :init true))
(define-fun .def_14 () (Array Int Int) (! |.x{156}| :next |.y{16}|))
(define-fun .def_156 () Int (select .def_14 |.x{157}|))
(define-fun .def_18 () (Array Int Int) (! |.x{160}| :next |.y{18}|))
(define-fun .def_155 () Int (select .def_18 |.x{161}|))
(define-fun .def_157 () Bool (= .def_155 .def_156))
(define-fun .def_217 () Bool (not .def_157))
(define-fun .def_20 () Int (! |.x{158}| :next |.y{19}|))
(define-fun .def_22 () Int (! |.x{152}| :next |.y{20}|))
(define-fun .def_178 () Bool (<= .def_22 .def_20))
(define-fun .def_179 () Bool (not .def_178))
(define-fun .def_8 () Int (! |.x{155}| :next |.y{13}|))
(define-fun .def_118 () Bool (<= .def_8 0))
(define-fun .def_71 () Bool (<= |.x{157}| 0))
(define-fun .def_72 () Bool (not .def_71))
(define-fun .def_119 () Bool (or .def_72 .def_118))
(define-fun .def_211 () Bool (and .def_119 .def_179))
(define-fun .def_212 () Bool (and .def_26 .def_211))
(define-fun .def_122 () Bool (not .def_118))
(define-fun .def_213 () Bool (and .def_122 .def_212))
(define-fun .def_130 () Bool (<= |.x{161}| 0))
(define-fun .def_131 () Bool (not .def_130))
(define-fun .def_16 () Int (! |.x{159}| :next |.y{17}|))
(define-fun .def_75 () Bool (<= .def_16 0))
(define-fun .def_132 () Bool (or .def_75 .def_131))
(define-fun .def_214 () Bool (and .def_132 .def_213))
(define-fun .def_76 () Bool (not .def_75))
(define-fun .def_215 () Bool (and .def_76 .def_214))
(define-fun .def_63 () Int (* (- 1) |.x{157}|))
(define-fun .def_137 () Int (+ .def_20 .def_63))
(define-fun .def_138 () Int (+ .def_8 .def_137))
(define-fun .def_139 () Bool (= .def_138 0))
(define-fun .def_216 () Bool (and .def_139 .def_215))
(define-fun .def_218 () Bool (and .def_216 .def_217))
(define-fun .def_219 () Bool (and |.loc{9}| .def_218))
(define-fun .def_144 () Int (* (- 1) |.x{161}|))
(define-fun .def_147 () Int (+ .def_20 .def_144))
(define-fun .def_148 () Int (+ .def_16 .def_147))
(define-fun .def_149 () Bool (= .def_148 0))
(define-fun .def_220 () Bool (and .def_149 .def_219))
(define-fun .def_142 () Bool (not |.loc{7}|))
(define-fun .def_221 () Bool (and .def_142 .def_220))
(define-fun .def_93 () Bool (not |.loc{8}|))
(define-fun .def_222 () Bool (and .def_93 .def_221))
(define-fun .def_24 () Int (! |.y{12}| :next |.y{21}|))
(define-fun .def_207 () Bool (= |.y{20}| .def_24))
(define-fun .def_199 () Bool (= .def_22 0))
(define-fun .def_200 () Bool (not .def_199))
(define-fun .def_168 () Bool (= |.y{19}| 0))
(define-fun .def_33 () Bool (not |.loc{9}|))
(define-fun .def_99 () Bool (and .def_33 .def_98))
(define-fun .def_198 () Bool (and .def_99 .def_168))
(define-fun .def_201 () Bool (and .def_198 .def_200))
(define-fun .def_114 () Bool (<= .def_24 .def_20))
(define-fun .def_202 () Bool (and .def_114 .def_201))
(define-fun .def_56 () Bool (= .def_8 |.y{13}|))
(define-fun .def_203 () Bool (and .def_56 .def_202))
(define-fun .def_127 () Bool (= .def_14 |.y{16}|))
(define-fun .def_204 () Bool (and .def_127 .def_203))
(define-fun .def_68 () Bool (= .def_16 |.y{17}|))
(define-fun .def_205 () Bool (and .def_68 .def_204))
(define-fun .def_134 () Bool (= .def_18 |.y{18}|))
(define-fun .def_206 () Bool (and .def_134 .def_205))
(define-fun .def_208 () Bool (and .def_206 .def_207))
(define-fun .def_209 () Bool (and |.loc{7}| .def_208))
(define-fun .def_210 () Bool (and |.loc{8}| .def_209))
(define-fun .def_223 () Bool (or .def_210 .def_222))
(define-fun .def_181 () Bool (= .def_22 |.y{20}|))
(define-fun .def_180 () Bool (and .def_33 .def_179))
(define-fun .def_182 () Bool (and .def_180 .def_181))
(define-fun .def_183 () Bool (and .def_26 .def_182))
(define-fun .def_184 () Bool (and .def_119 .def_183))
(define-fun .def_185 () Bool (and .def_122 .def_184))
(define-fun .def_186 () Bool (and .def_56 .def_185))
(define-fun .def_187 () Bool (and .def_127 .def_186))
(define-fun .def_188 () Bool (and .def_68 .def_187))
(define-fun .def_189 () Bool (and .def_132 .def_188))
(define-fun .def_190 () Bool (and .def_134 .def_189))
(define-fun .def_191 () Bool (and .def_76 .def_190))
(define-fun .def_192 () Bool (and .def_139 .def_191))
(define-fun .def_193 () Bool (and .def_157 .def_192))
(define-fun .def_194 () Bool (and |.loc{7}| .def_193))
(define-fun .def_195 () Bool (and |.loc{8}| .def_194))
(define-fun .def_196 () Bool (and .def_149 .def_195))
(define-fun .def_151 () Int (* (- 1) |.y{19}|))
(define-fun .def_152 () Int (+ .def_20 .def_151))
(define-fun .def_153 () Bool (= .def_152 (- 1)))
(define-fun .def_197 () Bool (and .def_153 .def_196))
(define-fun .def_224 () Bool (or .def_197 .def_223))
(define-fun .def_225 () Bool (and .def_28 .def_224))
(define-fun .def_170 () Bool (= .def_20 |.y{21}|))
(define-fun .def_10 () Int (! |.y{10}| :next |.y{14}|))
(define-fun .def_165 () Bool (= |.y{13}| .def_10))
(define-fun .def_162 () Bool (= |.y{20}| 1))
(define-fun .def_163 () Bool (and .def_33 .def_162))
(define-fun .def_12 () Int (! |.y{11}| :next |.y{15}|))
(define-fun .def_53 () Bool (<= .def_20 .def_12))
(define-fun .def_164 () Bool (and .def_53 .def_163))
(define-fun .def_166 () Bool (and .def_164 .def_165))
(define-fun .def_167 () Bool (and .def_26 .def_166))
(define-fun .def_169 () Bool (and .def_167 .def_168))
(define-fun .def_171 () Bool (and .def_169 .def_170))
(define-fun .def_172 () Bool (and .def_127 .def_171))
(define-fun .def_173 () Bool (and .def_68 .def_172))
(define-fun .def_174 () Bool (and .def_134 .def_173))
(define-fun .def_175 () Bool (and |.loc{8}| .def_174))
(define-fun .def_176 () Bool (and .def_142 .def_175))
(define-fun .def_177 () Bool (and .def_95 .def_176))
(define-fun .def_226 () Bool (or .def_177 .def_225))
(define-fun .def_158 () Int (ite .def_157 .def_22 0))
(define-fun .def_159 () Bool (= |.y{20}| .def_158))
(define-fun .def_125 () Bool (= .def_24 |.y{21}|))
(define-fun .def_115 () Bool (not .def_114))
(define-fun .def_116 () Bool (and .def_33 .def_115))
(define-fun .def_117 () Bool (and .def_98 .def_116))
(define-fun .def_120 () Bool (and .def_117 .def_119))
(define-fun .def_121 () Bool (and .def_28 .def_120))
(define-fun .def_123 () Bool (and .def_121 .def_122))
(define-fun .def_124 () Bool (and .def_56 .def_123))
(define-fun .def_126 () Bool (and .def_124 .def_125))
(define-fun .def_128 () Bool (and .def_126 .def_127))
(define-fun .def_129 () Bool (and .def_68 .def_128))
(define-fun .def_133 () Bool (and .def_129 .def_132))
(define-fun .def_135 () Bool (and .def_133 .def_134))
(define-fun .def_136 () Bool (and .def_76 .def_135))
(define-fun .def_140 () Bool (and .def_136 .def_139))
(define-fun .def_141 () Bool (and |.loc{8}| .def_140))
(define-fun .def_143 () Bool (and .def_141 .def_142))
(define-fun .def_150 () Bool (and .def_143 .def_149))
(define-fun .def_154 () Bool (and .def_150 .def_153))
(define-fun .def_160 () Bool (and .def_154 .def_159))
(define-fun .def_227 () Bool (or .def_160 .def_226))
(define-fun .def_108 () Bool (<= |.y{17}| 0))
(define-fun .def_109 () Bool (not .def_108))
(define-fun .def_105 () Bool (<= |.y{19}| 0))
(define-fun .def_106 () Bool (not .def_105))
(define-fun .def_101 () Bool (<= |.y{14}| 0))
(define-fun .def_102 () Bool (not .def_101))
(define-fun .def_97 () Bool (= |.y{15}| 0))
(define-fun .def_100 () Bool (and .def_97 .def_99))
(define-fun .def_103 () Bool (and .def_100 .def_102))
(define-fun .def_104 () Bool (and .def_56 .def_103))
(define-fun .def_107 () Bool (and .def_104 .def_106))
(define-fun .def_110 () Bool (and .def_107 .def_109))
(define-fun .def_111 () Bool (and |.loc{7}| .def_110))
(define-fun .def_112 () Bool (and .def_93 .def_111))
(define-fun .def_113 () Bool (and .def_95 .def_112))
(define-fun .def_228 () Bool (or .def_113 .def_227))
(define-fun .def_89 () Bool (<= |.x{41}| 0))
(define-fun .def_90 () Bool (not .def_89))
(define-fun .def_91 () Bool (or .def_75 .def_90))
(define-fun .def_84 () Int (* (- 1) |.x{41}|))
(define-fun .def_85 () Int (+ .def_16 .def_84))
(define-fun .def_86 () Int (+ .def_12 .def_85))
(define-fun .def_87 () Bool (= .def_86 0))
(define-fun .def_70 () Bool (<= .def_10 0))
(define-fun .def_78 () Bool (not .def_70))
(define-fun .def_73 () Bool (or .def_70 .def_72))
(define-fun .def_64 () Int (+ .def_12 .def_63))
(define-fun .def_65 () Int (+ .def_10 .def_64))
(define-fun .def_66 () Bool (= .def_65 0))
(define-fun .def_54 () Bool (not .def_53))
(define-fun .def_50 () (Array Int Int) (store .def_14 |.x{157}| |.x{161}|))
(define-fun .def_51 () Bool (= |.y{16}| .def_50))
(define-fun .def_44 () (Array Int Int) (store .def_18 |.x{41}| |.x{42}|))
(define-fun .def_45 () Bool (= |.y{18}| .def_44))
(define-fun .def_40 () Bool (= .def_20 |.y{19}|))
(define-fun .def_36 () Int (* (- 1) |.y{15}|))
(define-fun .def_37 () Int (+ .def_12 .def_36))
(define-fun .def_38 () Bool (= .def_37 (- 1)))
(define-fun .def_32 () Bool (= .def_10 |.y{14}|))
(define-fun .def_34 () Bool (and .def_32 .def_33))
(define-fun .def_39 () Bool (and .def_34 .def_38))
(define-fun .def_41 () Bool (and .def_39 .def_40))
(define-fun .def_46 () Bool (and .def_41 .def_45))
(define-fun .def_47 () Bool (and .def_26 .def_46))
(define-fun .def_52 () Bool (and .def_47 .def_51))
(define-fun .def_55 () Bool (and .def_52 .def_54))
(define-fun .def_57 () Bool (and .def_55 .def_56))
(define-fun .def_67 () Bool (and .def_57 .def_66))
(define-fun .def_69 () Bool (and .def_67 .def_68))
(define-fun .def_74 () Bool (and .def_69 .def_73))
(define-fun .def_77 () Bool (and .def_74 .def_76))
(define-fun .def_79 () Bool (and .def_77 .def_78))
(define-fun .def_80 () Bool (and |.loc{7}| .def_79))
(define-fun .def_88 () Bool (and .def_80 .def_87))
(define-fun .def_92 () Bool (and .def_88 .def_91))
(define-fun .def_94 () Bool (and .def_92 .def_93))
(define-fun .def_96 () Bool (and .def_94 .def_95))
(define-fun .def_229 () Bool (or .def_96 .def_228))
(define-fun .def_231 () Bool (! (and .def_229 .def_230) :trans true))
(define-fun .def_234 () Bool (and .def_30 .def_232))
(define-fun .def_235 () Bool (! (not .def_234) :invar-property 0))
(assert true)
